c t mc
c file mc2022_track1_103.cnf
p cnf 892 2638
336 337 0
336 338 0
336 339 0
336 340 0
336 341 0
336 342 0
336 343 0
336 344 0
345 346 0
345 347 0
345 348 0
345 349 0
345 350 0
345 351 0
345 352 0
345 353 0
354 355 0
354 356 0
354 357 0
354 358 0
354 359 0
354 360 0
354 361 0
354 362 0
363 364 0
363 365 0
363 366 0
363 367 0
363 368 0
363 369 0
363 370 0
363 371 0
372 373 0
372 374 0
372 375 0
372 376 0
372 377 0
372 378 0
372 379 0
372 380 0
381 382 0
381 383 0
381 384 0
381 385 0
381 386 0
381 387 0
381 388 0
381 389 0
390 391 0
390 392 0
390 393 0
390 394 0
390 395 0
390 396 0
390 397 0
390 398 0
399 400 0
399 401 0
399 402 0
399 403 0
399 404 0
399 405 0
399 406 0
399 407 0
408 409 0
408 410 0
408 411 0
408 412 0
408 413 0
408 414 0
408 415 0
408 416 0
337 336 0
337 338 0
337 339 0
337 340 0
337 341 0
337 342 0
337 343 0
337 344 0
346 345 0
346 347 0
346 348 0
346 349 0
346 350 0
346 351 0
346 352 0
346 353 0
355 354 0
355 356 0
355 357 0
355 358 0
355 359 0
355 360 0
355 361 0
355 362 0
364 363 0
364 365 0
364 366 0
364 367 0
364 368 0
364 369 0
364 370 0
364 371 0
373 372 0
373 374 0
373 375 0
373 376 0
373 377 0
373 378 0
373 379 0
373 380 0
382 381 0
382 383 0
382 384 0
382 385 0
382 386 0
382 387 0
382 388 0
382 389 0
391 390 0
391 392 0
391 393 0
391 394 0
391 395 0
391 396 0
391 397 0
391 398 0
400 399 0
400 401 0
400 402 0
400 403 0
400 404 0
400 405 0
400 406 0
400 407 0
409 408 0
409 410 0
409 411 0
409 412 0
409 413 0
409 414 0
409 415 0
409 416 0
338 336 0
338 337 0
338 339 0
338 340 0
338 341 0
338 342 0
338 343 0
338 344 0
347 345 0
347 346 0
347 348 0
347 349 0
347 350 0
347 351 0
347 352 0
347 353 0
356 354 0
356 355 0
356 357 0
356 358 0
356 359 0
356 360 0
356 361 0
356 362 0
365 363 0
365 364 0
365 366 0
365 367 0
365 368 0
365 369 0
365 370 0
365 371 0
374 372 0
374 373 0
374 375 0
374 376 0
374 377 0
374 378 0
374 379 0
374 380 0
383 381 0
383 382 0
383 384 0
383 385 0
383 386 0
383 387 0
383 388 0
383 389 0
392 390 0
392 391 0
392 393 0
392 394 0
392 395 0
392 396 0
392 397 0
392 398 0
401 399 0
401 400 0
401 402 0
401 403 0
401 404 0
401 405 0
401 406 0
401 407 0
410 408 0
410 409 0
410 411 0
410 412 0
410 413 0
410 414 0
410 415 0
410 416 0
339 336 0
339 337 0
339 338 0
339 340 0
339 341 0
339 342 0
339 343 0
339 344 0
348 345 0
348 346 0
348 347 0
348 349 0
348 350 0
348 351 0
348 352 0
348 353 0
357 354 0
357 355 0
357 356 0
357 358 0
357 359 0
357 360 0
357 361 0
357 362 0
366 363 0
366 364 0
366 365 0
366 367 0
366 368 0
366 369 0
366 370 0
366 371 0
375 372 0
375 373 0
375 374 0
375 376 0
375 377 0
375 378 0
375 379 0
375 380 0
384 381 0
384 382 0
384 383 0
384 385 0
384 386 0
384 387 0
384 388 0
384 389 0
393 390 0
393 391 0
393 392 0
393 394 0
393 395 0
393 396 0
393 397 0
393 398 0
402 399 0
402 400 0
402 401 0
402 403 0
402 404 0
402 405 0
402 406 0
402 407 0
411 408 0
411 409 0
411 410 0
411 412 0
411 413 0
411 414 0
411 415 0
411 416 0
340 336 0
340 337 0
340 338 0
340 339 0
340 341 0
340 342 0
340 343 0
340 344 0
349 345 0
349 346 0
349 347 0
349 348 0
349 350 0
349 351 0
349 352 0
349 353 0
358 354 0
358 355 0
358 356 0
358 357 0
358 359 0
358 360 0
358 361 0
358 362 0
367 363 0
367 364 0
367 365 0
367 366 0
367 368 0
367 369 0
367 370 0
367 371 0
376 372 0
376 373 0
376 374 0
376 375 0
376 377 0
376 378 0
376 379 0
376 380 0
385 381 0
385 382 0
385 383 0
385 384 0
385 386 0
385 387 0
385 388 0
385 389 0
394 390 0
394 391 0
394 392 0
394 393 0
394 395 0
394 396 0
394 397 0
394 398 0
403 399 0
403 400 0
403 401 0
403 402 0
403 404 0
403 405 0
403 406 0
403 407 0
412 408 0
412 409 0
412 410 0
412 411 0
412 413 0
412 414 0
412 415 0
412 416 0
341 336 0
341 337 0
341 338 0
341 339 0
341 340 0
341 342 0
341 343 0
341 344 0
350 345 0
350 346 0
350 347 0
350 348 0
350 349 0
350 351 0
350 352 0
350 353 0
359 354 0
359 355 0
359 356 0
359 357 0
359 358 0
359 360 0
359 361 0
359 362 0
368 363 0
368 364 0
368 365 0
368 366 0
368 367 0
368 369 0
368 370 0
368 371 0
377 372 0
377 373 0
377 374 0
377 375 0
377 376 0
377 378 0
377 379 0
377 380 0
386 381 0
386 382 0
386 383 0
386 384 0
386 385 0
386 387 0
386 388 0
386 389 0
395 390 0
395 391 0
395 392 0
395 393 0
395 394 0
395 396 0
395 397 0
395 398 0
404 399 0
404 400 0
404 401 0
404 402 0
404 403 0
404 405 0
404 406 0
404 407 0
413 408 0
413 409 0
413 410 0
413 411 0
413 412 0
413 414 0
413 415 0
413 416 0
342 336 0
342 337 0
342 338 0
342 339 0
342 340 0
342 341 0
342 343 0
342 344 0
351 345 0
351 346 0
351 347 0
351 348 0
351 349 0
351 350 0
351 352 0
351 353 0
360 354 0
360 355 0
360 356 0
360 357 0
360 358 0
360 359 0
360 361 0
360 362 0
369 363 0
369 364 0
369 365 0
369 366 0
369 367 0
369 368 0
369 370 0
369 371 0
378 372 0
378 373 0
378 374 0
378 375 0
378 376 0
378 377 0
378 379 0
378 380 0
387 381 0
387 382 0
387 383 0
387 384 0
387 385 0
387 386 0
387 388 0
387 389 0
396 390 0
396 391 0
396 392 0
396 393 0
396 394 0
396 395 0
396 397 0
396 398 0
405 399 0
405 400 0
405 401 0
405 402 0
405 403 0
405 404 0
405 406 0
405 407 0
414 408 0
414 409 0
414 410 0
414 411 0
414 412 0
414 413 0
414 415 0
414 416 0
343 336 0
343 337 0
343 338 0
343 339 0
343 340 0
343 341 0
343 342 0
343 344 0
352 345 0
352 346 0
352 347 0
352 348 0
352 349 0
352 350 0
352 351 0
352 353 0
361 354 0
361 355 0
361 356 0
361 357 0
361 358 0
361 359 0
361 360 0
361 362 0
370 363 0
370 364 0
370 365 0
370 366 0
370 367 0
370 368 0
370 369 0
370 371 0
379 372 0
379 373 0
379 374 0
379 375 0
379 376 0
379 377 0
379 378 0
379 380 0
388 381 0
388 382 0
388 383 0
388 384 0
388 385 0
388 386 0
388 387 0
388 389 0
397 390 0
397 391 0
397 392 0
397 393 0
397 394 0
397 395 0
397 396 0
397 398 0
406 399 0
406 400 0
406 401 0
406 402 0
406 403 0
406 404 0
406 405 0
406 407 0
415 408 0
415 409 0
415 410 0
415 411 0
415 412 0
415 413 0
415 414 0
415 416 0
344 336 0
344 337 0
344 338 0
344 339 0
344 340 0
344 341 0
344 342 0
344 343 0
353 345 0
353 346 0
353 347 0
353 348 0
353 349 0
353 350 0
353 351 0
353 352 0
362 354 0
362 355 0
362 356 0
362 357 0
362 358 0
362 359 0
362 360 0
362 361 0
371 363 0
371 364 0
371 365 0
371 366 0
371 367 0
371 368 0
371 369 0
371 370 0
380 372 0
380 373 0
380 374 0
380 375 0
380 376 0
380 377 0
380 378 0
380 379 0
389 381 0
389 382 0
389 383 0
389 384 0
389 385 0
389 386 0
389 387 0
389 388 0
398 390 0
398 391 0
398 392 0
398 393 0
398 394 0
398 395 0
398 396 0
398 397 0
407 399 0
407 400 0
407 401 0
407 402 0
407 403 0
407 404 0
407 405 0
407 406 0
416 408 0
416 409 0
416 410 0
416 411 0
416 412 0
416 413 0
416 414 0
416 415 0
327 112 0
328 115 0
329 118 0
330 121 0
331 124 0
332 127 0
333 130 0
334 133 0
335 136 0
327 20 0
-327 -20 0
20 0
328 21 0
-328 -21 0
21 0
329 22 0
-329 -22 0
22 0
330 23 0
-330 -23 0
23 0
331 24 0
-331 -24 0
24 0
332 25 0
-332 -25 0
25 0
333 26 0
-333 -26 0
26 0
334 27 0
-334 -27 0
27 0
335 28 0
-335 -28 0
28 0
336 29 0
-336 -29 0
29 444 138 0
-29 -444 0
-29 -138 0
337 30 0
-337 -30 0
30 463 157 0
-30 -463 0
-30 -157 0
338 31 0
-338 -31 0
31 482 176 0
-31 -482 0
-31 -176 0
339 32 0
-339 -32 0
32 501 195 0
-32 -501 0
-32 -195 0
340 33 0
-340 -33 0
33 520 214 0
-33 -520 0
-33 -214 0
341 34 0
-341 -34 0
34 539 233 0
-34 -539 0
-34 -233 0
342 35 0
-342 -35 0
35 558 252 0
-35 -558 0
-35 -252 0
343 36 0
-343 -36 0
36 577 271 0
-36 -577 0
-36 -271 0
344 37 0
-344 -37 0
37 596 290 0
-37 -596 0
-37 -290 0
345 38 0
-345 -38 0
38 444 139 0
-38 -444 0
-38 -139 0
346 39 0
-346 -39 0
39 463 158 0
-39 -463 0
-39 -158 0
347 40 0
-347 -40 0
40 482 177 0
-40 -482 0
-40 -177 0
348 41 0
-348 -41 0
41 501 196 0
-41 -501 0
-41 -196 0
349 42 0
-349 -42 0
42 520 215 0
-42 -520 0
-42 -215 0
350 43 0
-350 -43 0
43 539 234 0
-43 -539 0
-43 -234 0
351 44 0
-351 -44 0
44 558 253 0
-44 -558 0
-44 -253 0
352 45 0
-352 -45 0
45 577 272 0
-45 -577 0
-45 -272 0
353 46 0
-353 -46 0
46 596 291 0
-46 -596 0
-46 -291 0
354 47 0
-354 -47 0
47 444 140 0
-47 -444 0
-47 -140 0
355 48 0
-355 -48 0
48 463 159 0
-48 -463 0
-48 -159 0
356 49 0
-356 -49 0
49 482 178 0
-49 -482 0
-49 -178 0
357 50 0
-357 -50 0
50 501 197 0
-50 -501 0
-50 -197 0
358 51 0
-358 -51 0
51 520 216 0
-51 -520 0
-51 -216 0
359 52 0
-359 -52 0
52 539 235 0
-52 -539 0
-52 -235 0
360 53 0
-360 -53 0
53 558 254 0
-53 -558 0
-53 -254 0
361 54 0
-361 -54 0
54 577 273 0
-54 -577 0
-54 -273 0
362 55 0
-362 -55 0
55 596 292 0
-55 -596 0
-55 -292 0
363 56 0
-363 -56 0
56 444 141 0
-56 -444 0
-56 -141 0
364 57 0
-364 -57 0
57 463 160 0
-57 -463 0
-57 -160 0
365 58 0
-365 -58 0
58 482 179 0
-58 -482 0
-58 -179 0
366 59 0
-366 -59 0
59 501 198 0
-59 -501 0
-59 -198 0
367 60 0
-367 -60 0
60 520 217 0
-60 -520 0
-60 -217 0
368 61 0
-368 -61 0
61 539 236 0
-61 -539 0
-61 -236 0
369 62 0
-369 -62 0
62 558 255 0
-62 -558 0
-62 -255 0
370 63 0
-370 -63 0
63 577 274 0
-63 -577 0
-63 -274 0
371 64 0
-371 -64 0
64 596 293 0
-64 -596 0
-64 -293 0
372 65 0
-372 -65 0
65 444 142 0
-65 -444 0
-65 -142 0
373 66 0
-373 -66 0
66 463 161 0
-66 -463 0
-66 -161 0
374 67 0
-374 -67 0
67 482 180 0
-67 -482 0
-67 -180 0
375 68 0
-375 -68 0
68 501 199 0
-68 -501 0
-68 -199 0
376 69 0
-376 -69 0
69 520 218 0
-69 -520 0
-69 -218 0
377 70 0
-377 -70 0
70 539 237 0
-70 -539 0
-70 -237 0
378 71 0
-378 -71 0
71 558 256 0
-71 -558 0
-71 -256 0
379 72 0
-379 -72 0
72 577 275 0
-72 -577 0
-72 -275 0
380 73 0
-380 -73 0
73 596 294 0
-73 -596 0
-73 -294 0
381 74 0
-381 -74 0
74 444 143 0
-74 -444 0
-74 -143 0
382 75 0
-382 -75 0
75 463 162 0
-75 -463 0
-75 -162 0
383 76 0
-383 -76 0
76 482 181 0
-76 -482 0
-76 -181 0
384 77 0
-384 -77 0
77 501 200 0
-77 -501 0
-77 -200 0
385 78 0
-385 -78 0
78 520 219 0
-78 -520 0
-78 -219 0
386 79 0
-386 -79 0
79 539 238 0
-79 -539 0
-79 -238 0
387 80 0
-387 -80 0
80 558 257 0
-80 -558 0
-80 -257 0
388 81 0
-388 -81 0
81 577 276 0
-81 -577 0
-81 -276 0
389 82 0
-389 -82 0
82 596 295 0
-82 -596 0
-82 -295 0
390 83 0
-390 -83 0
83 444 144 0
-83 -444 0
-83 -144 0
391 84 0
-391 -84 0
84 463 163 0
-84 -463 0
-84 -163 0
392 85 0
-392 -85 0
85 482 182 0
-85 -482 0
-85 -182 0
393 86 0
-393 -86 0
86 501 201 0
-86 -501 0
-86 -201 0
394 87 0
-394 -87 0
87 520 220 0
-87 -520 0
-87 -220 0
395 88 0
-395 -88 0
88 539 239 0
-88 -539 0
-88 -239 0
396 89 0
-396 -89 0
89 558 258 0
-89 -558 0
-89 -258 0
397 90 0
-397 -90 0
90 577 277 0
-90 -577 0
-90 -277 0
398 91 0
-398 -91 0
91 596 296 0
-91 -596 0
-91 -296 0
399 92 0
-399 -92 0
92 444 145 0
-92 -444 0
-92 -145 0
400 93 0
-400 -93 0
93 463 164 0
-93 -463 0
-93 -164 0
401 94 0
-401 -94 0
94 482 183 0
-94 -482 0
-94 -183 0
402 95 0
-402 -95 0
95 501 202 0
-95 -501 0
-95 -202 0
403 96 0
-403 -96 0
96 520 221 0
-96 -520 0
-96 -221 0
404 97 0
-404 -97 0
97 539 240 0
-97 -539 0
-97 -240 0
405 98 0
-405 -98 0
98 558 259 0
-98 -558 0
-98 -259 0
406 99 0
-406 -99 0
99 577 278 0
-99 -577 0
-99 -278 0
407 100 0
-407 -100 0
100 596 297 0
-100 -596 0
-100 -297 0
408 101 0
-408 -101 0
101 444 146 0
-101 -444 0
-101 -146 0
409 102 0
-409 -102 0
102 463 165 0
-102 -463 0
-102 -165 0
410 103 0
-410 -103 0
103 482 184 0
-103 -482 0
-103 -184 0
411 104 0
-411 -104 0
104 501 203 0
-104 -501 0
-104 -203 0
412 105 0
-412 -105 0
105 520 222 0
-105 -520 0
-105 -222 0
413 106 0
-413 -106 0
106 539 241 0
-106 -539 0
-106 -241 0
414 107 0
-414 -107 0
107 558 260 0
-107 -558 0
-107 -260 0
415 108 0
-415 -108 0
108 577 279 0
-108 -577 0
-108 -279 0
416 109 0
-416 -109 0
109 596 298 0
-109 -596 0
-109 -298 0
417 110 0
-417 -110 0
614 336 0
-614 -336 0
615 345 0
-615 -345 0
616 354 0
-616 -354 0
617 363 0
-617 -363 0
618 372 0
-618 -372 0
619 381 0
-619 -381 0
620 390 0
-620 -390 0
621 399 0
-621 -399 0
622 408 0
-622 -408 0
623 454 345 0
-623 -454 0
-623 -345 0
624 455 354 0
-624 -455 0
-624 -354 0
625 456 363 0
-625 -456 0
-625 -363 0
626 457 372 0
-626 -457 0
-626 -372 0
627 458 381 0
-627 -458 0
-627 -381 0
628 459 390 0
-628 -459 0
-628 -390 0
629 460 399 0
-629 -460 0
-629 -399 0
630 461 408 0
-630 -461 0
-630 -408 0
112 417 111 0
-112 -417 0
-112 -111 0
420 113 0
-420 -113 0
631 337 0
-631 -337 0
632 346 0
-632 -346 0
633 355 0
-633 -355 0
634 364 0
-634 -364 0
635 373 0
-635 -373 0
636 382 0
-636 -382 0
637 391 0
-637 -391 0
638 400 0
-638 -400 0
639 409 0
-639 -409 0
640 473 346 0
-640 -473 0
-640 -346 0
641 474 355 0
-641 -474 0
-641 -355 0
642 475 364 0
-642 -475 0
-642 -364 0
643 476 373 0
-643 -476 0
-643 -373 0
644 477 382 0
-644 -477 0
-644 -382 0
645 478 391 0
-645 -478 0
-645 -391 0
646 479 400 0
-646 -479 0
-646 -400 0
647 480 409 0
-647 -480 0
-647 -409 0
115 420 114 0
-115 -420 0
-115 -114 0
423 116 0
-423 -116 0
648 338 0
-648 -338 0
649 347 0
-649 -347 0
650 356 0
-650 -356 0
651 365 0
-651 -365 0
652 374 0
-652 -374 0
653 383 0
-653 -383 0
654 392 0
-654 -392 0
655 401 0
-655 -401 0
656 410 0
-656 -410 0
657 492 347 0
-657 -492 0
-657 -347 0
658 493 356 0
-658 -493 0
-658 -356 0
659 494 365 0
-659 -494 0
-659 -365 0
660 495 374 0
-660 -495 0
-660 -374 0
661 496 383 0
-661 -496 0
-661 -383 0
662 497 392 0
-662 -497 0
-662 -392 0
663 498 401 0
-663 -498 0
-663 -401 0
664 499 410 0
-664 -499 0
-664 -410 0
118 423 117 0
-118 -423 0
-118 -117 0
426 119 0
-426 -119 0
665 339 0
-665 -339 0
666 348 0
-666 -348 0
667 357 0
-667 -357 0
668 366 0
-668 -366 0
669 375 0
-669 -375 0
670 384 0
-670 -384 0
671 393 0
-671 -393 0
672 402 0
-672 -402 0
673 411 0
-673 -411 0
674 511 348 0
-674 -511 0
-674 -348 0
675 512 357 0
-675 -512 0
-675 -357 0
676 513 366 0
-676 -513 0
-676 -366 0
677 514 375 0
-677 -514 0
-677 -375 0
678 515 384 0
-678 -515 0
-678 -384 0
679 516 393 0
-679 -516 0
-679 -393 0
680 517 402 0
-680 -517 0
-680 -402 0
681 518 411 0
-681 -518 0
-681 -411 0
121 426 120 0
-121 -426 0
-121 -120 0
429 122 0
-429 -122 0
682 340 0
-682 -340 0
683 349 0
-683 -349 0
684 358 0
-684 -358 0
685 367 0
-685 -367 0
686 376 0
-686 -376 0
687 385 0
-687 -385 0
688 394 0
-688 -394 0
689 403 0
-689 -403 0
690 412 0
-690 -412 0
691 530 349 0
-691 -530 0
-691 -349 0
692 531 358 0
-692 -531 0
-692 -358 0
693 532 367 0
-693 -532 0
-693 -367 0
694 533 376 0
-694 -533 0
-694 -376 0
695 534 385 0
-695 -534 0
-695 -385 0
696 535 394 0
-696 -535 0
-696 -394 0
697 536 403 0
-697 -536 0
-697 -403 0
698 537 412 0
-698 -537 0
-698 -412 0
124 429 123 0
-124 -429 0
-124 -123 0
432 125 0
-432 -125 0
699 341 0
-699 -341 0
700 350 0
-700 -350 0
701 359 0
-701 -359 0
702 368 0
-702 -368 0
703 377 0
-703 -377 0
704 386 0
-704 -386 0
705 395 0
-705 -395 0
706 404 0
-706 -404 0
707 413 0
-707 -413 0
708 549 350 0
-708 -549 0
-708 -350 0
709 550 359 0
-709 -550 0
-709 -359 0
710 551 368 0
-710 -551 0
-710 -368 0
711 552 377 0
-711 -552 0
-711 -377 0
712 553 386 0
-712 -553 0
-712 -386 0
713 554 395 0
-713 -554 0
-713 -395 0
714 555 404 0
-714 -555 0
-714 -404 0
715 556 413 0
-715 -556 0
-715 -413 0
127 432 126 0
-127 -432 0
-127 -126 0
435 128 0
-435 -128 0
716 342 0
-716 -342 0
717 351 0
-717 -351 0
718 360 0
-718 -360 0
719 369 0
-719 -369 0
720 378 0
-720 -378 0
721 387 0
-721 -387 0
722 396 0
-722 -396 0
723 405 0
-723 -405 0
724 414 0
-724 -414 0
725 568 351 0
-725 -568 0
-725 -351 0
726 569 360 0
-726 -569 0
-726 -360 0
727 570 369 0
-727 -570 0
-727 -369 0
728 571 378 0
-728 -571 0
-728 -378 0
729 572 387 0
-729 -572 0
-729 -387 0
730 573 396 0
-730 -573 0
-730 -396 0
731 574 405 0
-731 -574 0
-731 -405 0
732 575 414 0
-732 -575 0
-732 -414 0
130 435 129 0
-130 -435 0
-130 -129 0
438 131 0
-438 -131 0
733 343 0
-733 -343 0
734 352 0
-734 -352 0
735 361 0
-735 -361 0
736 370 0
-736 -370 0
737 379 0
-737 -379 0
738 388 0
-738 -388 0
739 397 0
-739 -397 0
740 406 0
-740 -406 0
741 415 0
-741 -415 0
742 587 352 0
-742 -587 0
-742 -352 0
743 588 361 0
-743 -588 0
-743 -361 0
744 589 370 0
-744 -589 0
-744 -370 0
745 590 379 0
-745 -590 0
-745 -379 0
746 591 388 0
-746 -591 0
-746 -388 0
747 592 397 0
-747 -592 0
-747 -397 0
748 593 406 0
-748 -593 0
-748 -406 0
749 594 415 0
-749 -594 0
-749 -415 0
133 438 132 0
-133 -438 0
-133 -132 0
441 134 0
-441 -134 0
750 344 0
-750 -344 0
751 353 0
-751 -353 0
752 362 0
-752 -362 0
753 371 0
-753 -371 0
754 380 0
-754 -380 0
755 389 0
-755 -389 0
756 398 0
-756 -398 0
757 407 0
-757 -407 0
758 416 0
-758 -416 0
759 606 353 0
-759 -606 0
-759 -353 0
760 607 362 0
-760 -607 0
-760 -362 0
761 608 371 0
-761 -608 0
-761 -371 0
762 609 380 0
-762 -609 0
-762 -380 0
763 610 389 0
-763 -610 0
-763 -389 0
764 611 398 0
-764 -611 0
-764 -398 0
765 612 407 0
-765 -612 0
-765 -407 0
766 613 416 0
-766 -613 0
-766 -416 0
136 441 135 0
-136 -441 0
-136 -135 0
444 137 0
-444 -137 0
137 327 0
-137 -327 0
138 29 0
-138 -29 0
139 38 0
-139 -38 0
140 47 0
-140 -47 0
141 56 0
-141 -56 0
142 65 0
-142 -65 0
143 74 0
-143 -74 0
144 83 0
-144 -83 0
145 92 0
-145 -92 0
146 101 0
-146 -101 0
454 147 0
-454 -147 0
147 336 0
-147 -336 0
455 148 0
-455 -148 0
767 454 0
-767 -454 0
768 345 0
-768 -345 0
456 149 0
-456 -149 0
769 455 0
-769 -455 0
770 354 0
-770 -354 0
457 150 0
-457 -150 0
771 456 0
-771 -456 0
772 363 0
-772 -363 0
458 151 0
-458 -151 0
773 457 0
-773 -457 0
774 372 0
-774 -372 0
459 152 0
-459 -152 0
775 458 0
-775 -458 0
776 381 0
-776 -381 0
460 153 0
-460 -153 0
777 459 0
-777 -459 0
778 390 0
-778 -390 0
461 154 0
-461 -154 0
779 460 0
-779 -460 0
780 399 0
-780 -399 0
463 156 0
-463 -156 0
156 328 0
-156 -328 0
157 30 0
-157 -30 0
158 39 0
-158 -39 0
159 48 0
-159 -48 0
160 57 0
-160 -57 0
161 66 0
-161 -66 0
162 75 0
-162 -75 0
163 84 0
-163 -84 0
164 93 0
-164 -93 0
165 102 0
-165 -102 0
473 166 0
-473 -166 0
166 337 0
-166 -337 0
474 167 0
-474 -167 0
781 473 0
-781 -473 0
782 346 0
-782 -346 0
475 168 0
-475 -168 0
783 474 0
-783 -474 0
784 355 0
-784 -355 0
476 169 0
-476 -169 0
785 475 0
-785 -475 0
786 364 0
-786 -364 0
477 170 0
-477 -170 0
787 476 0
-787 -476 0
788 373 0
-788 -373 0
478 171 0
-478 -171 0
789 477 0
-789 -477 0
790 382 0
-790 -382 0
479 172 0
-479 -172 0
791 478 0
-791 -478 0
792 391 0
-792 -391 0
480 173 0
-480 -173 0
793 479 0
-793 -479 0
794 400 0
-794 -400 0
482 175 0
-482 -175 0
175 329 0
-175 -329 0
176 31 0
-176 -31 0
177 40 0
-177 -40 0
178 49 0
-178 -49 0
179 58 0
-179 -58 0
180 67 0
-180 -67 0
181 76 0
-181 -76 0
182 85 0
-182 -85 0
183 94 0
-183 -94 0
184 103 0
-184 -103 0
492 185 0
-492 -185 0
185 338 0
-185 -338 0
493 186 0
-493 -186 0
795 492 0
-795 -492 0
796 347 0
-796 -347 0
494 187 0
-494 -187 0
797 493 0
-797 -493 0
798 356 0
-798 -356 0
495 188 0
-495 -188 0
799 494 0
-799 -494 0
800 365 0
-800 -365 0
496 189 0
-496 -189 0
801 495 0
-801 -495 0
802 374 0
-802 -374 0
497 190 0
-497 -190 0
803 496 0
-803 -496 0
804 383 0
-804 -383 0
498 191 0
-498 -191 0
805 497 0
-805 -497 0
806 392 0
-806 -392 0
499 192 0
-499 -192 0
807 498 0
-807 -498 0
808 401 0
-808 -401 0
501 194 0
-501 -194 0
194 330 0
-194 -330 0
195 32 0
-195 -32 0
196 41 0
-196 -41 0
197 50 0
-197 -50 0
198 59 0
-198 -59 0
199 68 0
-199 -68 0
200 77 0
-200 -77 0
201 86 0
-201 -86 0
202 95 0
-202 -95 0
203 104 0
-203 -104 0
511 204 0
-511 -204 0
204 339 0
-204 -339 0
512 205 0
-512 -205 0
809 511 0
-809 -511 0
810 348 0
-810 -348 0
513 206 0
-513 -206 0
811 512 0
-811 -512 0
812 357 0
-812 -357 0
514 207 0
-514 -207 0
813 513 0
-813 -513 0
814 366 0
-814 -366 0
515 208 0
-515 -208 0
815 514 0
-815 -514 0
816 375 0
-816 -375 0
516 209 0
-516 -209 0
817 515 0
-817 -515 0
818 384 0
-818 -384 0
517 210 0
-517 -210 0
819 516 0
-819 -516 0
820 393 0
-820 -393 0
518 211 0
-518 -211 0
821 517 0
-821 -517 0
822 402 0
-822 -402 0
520 213 0
-520 -213 0
213 331 0
-213 -331 0
214 33 0
-214 -33 0
215 42 0
-215 -42 0
216 51 0
-216 -51 0
217 60 0
-217 -60 0
218 69 0
-218 -69 0
219 78 0
-219 -78 0
220 87 0
-220 -87 0
221 96 0
-221 -96 0
222 105 0
-222 -105 0
530 223 0
-530 -223 0
223 340 0
-223 -340 0
531 224 0
-531 -224 0
823 530 0
-823 -530 0
824 349 0
-824 -349 0
532 225 0
-532 -225 0
825 531 0
-825 -531 0
826 358 0
-826 -358 0
533 226 0
-533 -226 0
827 532 0
-827 -532 0
828 367 0
-828 -367 0
534 227 0
-534 -227 0
829 533 0
-829 -533 0
830 376 0
-830 -376 0
535 228 0
-535 -228 0
831 534 0
-831 -534 0
832 385 0
-832 -385 0
536 229 0
-536 -229 0
833 535 0
-833 -535 0
834 394 0
-834 -394 0
537 230 0
-537 -230 0
835 536 0
-835 -536 0
836 403 0
-836 -403 0
539 232 0
-539 -232 0
232 332 0
-232 -332 0
233 34 0
-233 -34 0
234 43 0
-234 -43 0
235 52 0
-235 -52 0
236 61 0
-236 -61 0
237 70 0
-237 -70 0
238 79 0
-238 -79 0
239 88 0
-239 -88 0
240 97 0
-240 -97 0
241 106 0
-241 -106 0
549 242 0
-549 -242 0
242 341 0
-242 -341 0
550 243 0
-550 -243 0
837 549 0
-837 -549 0
838 350 0
-838 -350 0
551 244 0
-551 -244 0
839 550 0
-839 -550 0
840 359 0
-840 -359 0
552 245 0
-552 -245 0
841 551 0
-841 -551 0
842 368 0
-842 -368 0
553 246 0
-553 -246 0
843 552 0
-843 -552 0
844 377 0
-844 -377 0
554 247 0
-554 -247 0
845 553 0
-845 -553 0
846 386 0
-846 -386 0
555 248 0
-555 -248 0
847 554 0
-847 -554 0
848 395 0
-848 -395 0
556 249 0
-556 -249 0
849 555 0
-849 -555 0
850 404 0
-850 -404 0
558 251 0
-558 -251 0
251 333 0
-251 -333 0
252 35 0
-252 -35 0
253 44 0
-253 -44 0
254 53 0
-254 -53 0
255 62 0
-255 -62 0
256 71 0
-256 -71 0
257 80 0
-257 -80 0
258 89 0
-258 -89 0
259 98 0
-259 -98 0
260 107 0
-260 -107 0
568 261 0
-568 -261 0
261 342 0
-261 -342 0
569 262 0
-569 -262 0
851 568 0
-851 -568 0
852 351 0
-852 -351 0
570 263 0
-570 -263 0
853 569 0
-853 -569 0
854 360 0
-854 -360 0
571 264 0
-571 -264 0
855 570 0
-855 -570 0
856 369 0
-856 -369 0
572 265 0
-572 -265 0
857 571 0
-857 -571 0
858 378 0
-858 -378 0
573 266 0
-573 -266 0
859 572 0
-859 -572 0
860 387 0
-860 -387 0
574 267 0
-574 -267 0
861 573 0
-861 -573 0
862 396 0
-862 -396 0
575 268 0
-575 -268 0
863 574 0
-863 -574 0
864 405 0
-864 -405 0
577 270 0
-577 -270 0
270 334 0
-270 -334 0
271 36 0
-271 -36 0
272 45 0
-272 -45 0
273 54 0
-273 -54 0
274 63 0
-274 -63 0
275 72 0
-275 -72 0
276 81 0
-276 -81 0
277 90 0
-277 -90 0
278 99 0
-278 -99 0
279 108 0
-279 -108 0
587 280 0
-587 -280 0
280 343 0
-280 -343 0
588 281 0
-588 -281 0
865 587 0
-865 -587 0
866 352 0
-866 -352 0
589 282 0
-589 -282 0
867 588 0
-867 -588 0
868 361 0
-868 -361 0
590 283 0
-590 -283 0
869 589 0
-869 -589 0
870 370 0
-870 -370 0
591 284 0
-591 -284 0
871 590 0
-871 -590 0
872 379 0
-872 -379 0
592 285 0
-592 -285 0
873 591 0
-873 -591 0
874 388 0
-874 -388 0
593 286 0
-593 -286 0
875 592 0
-875 -592 0
876 397 0
-876 -397 0
594 287 0
-594 -287 0
877 593 0
-877 -593 0
878 406 0
-878 -406 0
596 289 0
-596 -289 0
289 335 0
-289 -335 0
290 37 0
-290 -37 0
291 46 0
-291 -46 0
292 55 0
-292 -55 0
293 64 0
-293 -64 0
294 73 0
-294 -73 0
295 82 0
-295 -82 0
296 91 0
-296 -91 0
297 100 0
-297 -100 0
298 109 0
-298 -109 0
606 299 0
-606 -299 0
299 344 0
-299 -344 0
607 300 0
-607 -300 0
879 606 0
-879 -606 0
880 353 0
-880 -353 0
608 301 0
-608 -301 0
881 607 0
-881 -607 0
882 362 0
-882 -362 0
609 302 0
-609 -302 0
883 608 0
-883 -608 0
884 371 0
-884 -371 0
610 303 0
-610 -303 0
885 609 0
-885 -609 0
886 380 0
-886 -380 0
611 304 0
-611 -304 0
887 610 0
-887 -610 0
888 389 0
-888 -389 0
612 305 0
-612 -305 0
889 611 0
-889 -611 0
890 398 0
-890 -398 0
613 306 0
-613 -306 0
891 612 0
-891 -612 0
892 407 0
-892 -407 0
-1 0
-2 0
-3 0
-4 0
-5 0
-6 0
-7 0
-8 0
-9 0
-10 0
-11 0
-12 0
-13 0
-14 0
-15 0
-16 0
-17 0
-18 0
-19 0
-110 614 615 616 617 618 619 620 621 622 0
110 -614 0
110 -615 0
110 -616 0
110 -617 0
110 -618 0
110 -619 0
110 -620 0
110 -621 0
110 -622 0
-111 623 624 625 626 627 628 629 630 0
111 -623 0
111 -624 0
111 -625 0
111 -626 0
111 -627 0
111 -628 0
111 -629 0
111 -630 0
-113 631 632 633 634 635 636 637 638 639 0
113 -631 0
113 -632 0
113 -633 0
113 -634 0
113 -635 0
113 -636 0
113 -637 0
113 -638 0
113 -639 0
-114 640 641 642 643 644 645 646 647 0
114 -640 0
114 -641 0
114 -642 0
114 -643 0
114 -644 0
114 -645 0
114 -646 0
114 -647 0
-116 648 649 650 651 652 653 654 655 656 0
116 -648 0
116 -649 0
116 -650 0
116 -651 0
116 -652 0
116 -653 0
116 -654 0
116 -655 0
116 -656 0
-117 657 658 659 660 661 662 663 664 0
117 -657 0
117 -658 0
117 -659 0
117 -660 0
117 -661 0
117 -662 0
117 -663 0
117 -664 0
-119 665 666 667 668 669 670 671 672 673 0
119 -665 0
119 -666 0
119 -667 0
119 -668 0
119 -669 0
119 -670 0
119 -671 0
119 -672 0
119 -673 0
-120 674 675 676 677 678 679 680 681 0
120 -674 0
120 -675 0
120 -676 0
120 -677 0
120 -678 0
120 -679 0
120 -680 0
120 -681 0
-122 682 683 684 685 686 687 688 689 690 0
122 -682 0
122 -683 0
122 -684 0
122 -685 0
122 -686 0
122 -687 0
122 -688 0
122 -689 0
122 -690 0
-123 691 692 693 694 695 696 697 698 0
123 -691 0
123 -692 0
123 -693 0
123 -694 0
123 -695 0
123 -696 0
123 -697 0
123 -698 0
-125 699 700 701 702 703 704 705 706 707 0
125 -699 0
125 -700 0
125 -701 0
125 -702 0
125 -703 0
125 -704 0
125 -705 0
125 -706 0
125 -707 0
-126 708 709 710 711 712 713 714 715 0
126 -708 0
126 -709 0
126 -710 0
126 -711 0
126 -712 0
126 -713 0
126 -714 0
126 -715 0
-128 716 717 718 719 720 721 722 723 724 0
128 -716 0
128 -717 0
128 -718 0
128 -719 0
128 -720 0
128 -721 0
128 -722 0
128 -723 0
128 -724 0
-129 725 726 727 728 729 730 731 732 0
129 -725 0
129 -726 0
129 -727 0
129 -728 0
129 -729 0
129 -730 0
129 -731 0
129 -732 0
-131 733 734 735 736 737 738 739 740 741 0
131 -733 0
131 -734 0
131 -735 0
131 -736 0
131 -737 0
131 -738 0
131 -739 0
131 -740 0
131 -741 0
-132 742 743 744 745 746 747 748 749 0
132 -742 0
132 -743 0
132 -744 0
132 -745 0
132 -746 0
132 -747 0
132 -748 0
132 -749 0
-134 750 751 752 753 754 755 756 757 758 0
134 -750 0
134 -751 0
134 -752 0
134 -753 0
134 -754 0
134 -755 0
134 -756 0
134 -757 0
134 -758 0
-135 759 760 761 762 763 764 765 766 0
135 -759 0
135 -760 0
135 -761 0
135 -762 0
135 -763 0
135 -764 0
135 -765 0
135 -766 0
-148 767 768 0
148 -767 0
148 -768 0
-149 769 770 0
149 -769 0
149 -770 0
-150 771 772 0
150 -771 0
150 -772 0
-151 773 774 0
151 -773 0
151 -774 0
-152 775 776 0
152 -775 0
152 -776 0
-153 777 778 0
153 -777 0
153 -778 0
-154 779 780 0
154 -779 0
154 -780 0
-155 0
-167 781 782 0
167 -781 0
167 -782 0
-168 783 784 0
168 -783 0
168 -784 0
-169 785 786 0
169 -785 0
169 -786 0
-170 787 788 0
170 -787 0
170 -788 0
-171 789 790 0
171 -789 0
171 -790 0
-172 791 792 0
172 -791 0
172 -792 0
-173 793 794 0
173 -793 0
173 -794 0
-174 0
-186 795 796 0
186 -795 0
186 -796 0
-187 797 798 0
187 -797 0
187 -798 0
-188 799 800 0
188 -799 0
188 -800 0
-189 801 802 0
189 -801 0
189 -802 0
-190 803 804 0
190 -803 0
190 -804 0
-191 805 806 0
191 -805 0
191 -806 0
-192 807 808 0
192 -807 0
192 -808 0
-193 0
-205 809 810 0
205 -809 0
205 -810 0
-206 811 812 0
206 -811 0
206 -812 0
-207 813 814 0
207 -813 0
207 -814 0
-208 815 816 0
208 -815 0
208 -816 0
-209 817 818 0
209 -817 0
209 -818 0
-210 819 820 0
210 -819 0
210 -820 0
-211 821 822 0
211 -821 0
211 -822 0
-212 0
-224 823 824 0
224 -823 0
224 -824 0
-225 825 826 0
225 -825 0
225 -826 0
-226 827 828 0
226 -827 0
226 -828 0
-227 829 830 0
227 -829 0
227 -830 0
-228 831 832 0
228 -831 0
228 -832 0
-229 833 834 0
229 -833 0
229 -834 0
-230 835 836 0
230 -835 0
230 -836 0
-231 0
-243 837 838 0
243 -837 0
243 -838 0
-244 839 840 0
244 -839 0
244 -840 0
-245 841 842 0
245 -841 0
245 -842 0
-246 843 844 0
246 -843 0
246 -844 0
-247 845 846 0
247 -845 0
247 -846 0
-248 847 848 0
248 -847 0
248 -848 0
-249 849 850 0
249 -849 0
249 -850 0
-250 0
-262 851 852 0
262 -851 0
262 -852 0
-263 853 854 0
263 -853 0
263 -854 0
-264 855 856 0
264 -855 0
264 -856 0
-265 857 858 0
265 -857 0
265 -858 0
-266 859 860 0
266 -859 0
266 -860 0
-267 861 862 0
267 -861 0
267 -862 0
-268 863 864 0
268 -863 0
268 -864 0
-269 0
-281 865 866 0
281 -865 0
281 -866 0
-282 867 868 0
282 -867 0
282 -868 0
-283 869 870 0
283 -869 0
283 -870 0
-284 871 872 0
284 -871 0
284 -872 0
-285 873 874 0
285 -873 0
285 -874 0
-286 875 876 0
286 -875 0
286 -876 0
-287 877 878 0
287 -877 0
287 -878 0
-288 0
-300 879 880 0
300 -879 0
300 -880 0
-301 881 882 0
301 -881 0
301 -882 0
-302 883 884 0
302 -883 0
302 -884 0
-303 885 886 0
303 -885 0
303 -886 0
-304 887 888 0
304 -887 0
304 -888 0
-305 889 890 0
305 -889 0
305 -890 0
-306 891 892 0
306 -891 0
306 -892 0
-307 0
-308 0
-309 0
-310 0
-311 0
-312 0
-313 0
-314 0
-315 0
-316 0
-317 0
-318 0
-319 0
-320 0
-321 0
-322 0
-323 0
-324 0
-325 0
-326 0
-418 0
-419 0
-421 0
-422 0
-424 0
-425 0
-427 0
-428 0
-430 0
-431 0
-433 0
-434 0
-436 0
-437 0
-439 0
-440 0
-442 0
-443 0
-445 0
-446 0
-447 0
-448 0
-449 0
-450 0
-451 0
-452 0
-453 0
-462 0
-464 0
-465 0
-466 0
-467 0
-468 0
-469 0
-470 0
-471 0
-472 0
-481 0
-483 0
-484 0
-485 0
-486 0
-487 0
-488 0
-489 0
-490 0
-491 0
-500 0
-502 0
-503 0
-504 0
-505 0
-506 0
-507 0
-508 0
-509 0
-510 0
-519 0
-521 0
-522 0
-523 0
-524 0
-525 0
-526 0
-527 0
-528 0
-529 0
-538 0
-540 0
-541 0
-542 0
-543 0
-544 0
-545 0
-546 0
-547 0
-548 0
-557 0
-559 0
-560 0
-561 0
-562 0
-563 0
-564 0
-565 0
-566 0
-567 0
-576 0
-578 0
-579 0
-580 0
-581 0
-582 0
-583 0
-584 0
-585 0
-586 0
-595 0
-597 0
-598 0
-599 0
-600 0
-601 0
-602 0
-603 0
-604 0
-605 0
